experiments/21_JSA_experiments/solutions/scalability_ilp_20-36/imx8a/IN_20_7.json-ILP-SM-II.out.log
Academic license - for non-commercial use only - expires 2022-11-10
Using license file /home/benedond/Apps/gurobi/gurobi950/gurobi.lic
Using gurobi.env file
Set parameter Threads to value 1
Changed value of parameter TimeLimit to 1200.0
   Prev: inf  Min: 0.0  Max: inf  Default: inf
Gurobi Optimizer version 9.1.2 build v9.1.2rc0 (linux64)
Thread count: 2 physical cores, 4 logical processors, using up to 1 threads
Optimize a model with 1005 rows, 904 columns and 4288 nonzeros
Model fingerprint: 0x76d81bbe
Variable types: 40 continuous, 864 integer (864 binary)
Coefficient statistics:
  Matrix range     [2e-01, 4e+02]
  Objective range  [2e-02, 5e-01]
  Bounds range     [1e+00, 1e+00]
  RHS range        [1e+00, 9e+02]
Presolve removed 135 rows and 72 columns
Presolve time: 0.02s
Presolved: 870 rows, 832 columns, 3862 nonzeros
Variable types: 39 continuous, 793 integer (793 binary)
Found heuristic solution: objective 4.7131868

Root relaxation: objective 2.110630e+00, 948 iterations, 0.02 seconds

    Nodes    |    Current Node    |     Objective Bounds      |     Work
 Expl Unexpl |  Obj  Depth IntInf | Incumbent    BestBd   Gap | It/Node Time

     0     0    2.11063    0   77    4.71319    2.11063  55.2%     -    0s
     0     0    2.20828    0   81    4.71319    2.20828  53.1%     -    0s
     0     0    2.25839    0  106    4.71319    2.25839  52.1%     -    0s
     0     0    2.43627    0  107    4.71319    2.43627  48.3%     -    0s
H    0     0                       3.7779671    2.43627  35.5%     -    0s
H    0     0                       3.7752748    2.43627  35.5%     -    0s
H    0     0                       3.6330550    2.43627  32.9%     -    0s
     0     0    2.44229    0  103    3.63305    2.44229  32.8%     -    0s
     0     0    2.44387    0   99    3.63305    2.44387  32.7%     -    0s
     0     0    2.52707    0  107    3.63305    2.52707  30.4%     -    0s
H    0     0                       3.3072638    2.52707  23.6%     -    0s
     0     0    2.53739    0   89    3.30726    2.53739  23.3%     -    0s
     0     0    2.53829    0   93    3.30726    2.53829  23.3%     -    0s
     0     0    2.53833    0   93    3.30726    2.53833  23.2%     -    0s
     0     0    2.58802    0   85    3.30726    2.58802  21.7%     -    0s
     0     0    2.59952    0  101    3.30726    2.59952  21.4%     -    0s
     0     0    2.60444    0  100    3.30726    2.60444  21.3%     -    0s
     0     0    2.60588    0   90    3.30726    2.60588  21.2%     -    0s
     0     0    2.60589    0   78    3.30726    2.60589  21.2%     -    0s
     0     0    2.61513    0  111    3.30726    2.61513  20.9%     -    0s
     0     0    2.61881    0   98    3.30726    2.61881  20.8%     -    0s
     0     0    2.61928    0  101    3.30726    2.61928  20.8%     -    0s
     0     0    2.61948    0  109    3.30726    2.61948  20.8%     -    0s
     0     0    2.63505    0   91    3.30726    2.63505  20.3%     -    0s
H    0     0                       3.2417583    2.63505  18.7%     -    0s
     0     0    2.64311    0  113    3.24176    2.64311  18.5%     -    0s
     0     0    2.64425    0  136    3.24176    2.64425  18.4%     -    0s
     0     0    2.64473    0  146    3.24176    2.64473  18.4%     -    0s
     0     0    2.64561    0  127    3.24176    2.64561  18.4%     -    0s
     0     0    2.64579    0  119    3.24176    2.64579  18.4%     -    0s
     0     0    2.65600    0  119    3.24176    2.65600  18.1%     -    0s
H    0     0                       3.0929121    2.65600  14.1%     -    0s
     0     0    2.65742    0  137    3.09291    2.65742  14.1%     -    0s
     0     0    2.65828    0  138    3.09291    2.65828  14.1%     -    0s
     0     0    2.65834    0  140    3.09291    2.65834  14.1%     -    0s
     0     0    2.66297    0  111    3.09291    2.66297  13.9%     -    0s
     0     0    2.66410    0  120    3.09291    2.66410  13.9%     -    0s
     0     0    2.66423    0  130    3.09291    2.66423  13.9%     -    0s
     0     0    2.66937    0  153    3.09291    2.66937  13.7%     -    0s
     0     0    2.67238    0  135    3.09291    2.67238  13.6%     -    0s
     0     0    2.67343    0  122    3.09291    2.67343  13.6%     -    0s
     0     0    2.67345    0  124    3.09291    2.67345  13.6%     -    0s
     0     0    2.67776    0  138    3.09291    2.67776  13.4%     -    0s
H    0     0                       3.0660880    2.67776  12.7%     -    0s
     0     0    2.67901    0  131    3.06609    2.67901  12.6%     -    0s
     0     0    2.67960    0  134    3.06609    2.67960  12.6%     -    0s
     0     0    2.67974    0  127    3.06609    2.67974  12.6%     -    0s
     0     0    2.68504    0  141    3.06609    2.68504  12.4%     -    0s
     0     0    2.68755    0  159    3.06609    2.68755  12.3%     -    0s
     0     0    2.68846    0  166    3.06609    2.68846  12.3%     -    0s
     0     0    2.68857    0  155    3.06609    2.68857  12.3%     -    0s
     0     0    2.69017    0  163    3.06609    2.69017  12.3%     -    0s
     0     0    2.69017    0  163    3.06609    2.69017  12.3%     -    0s
     0     2    2.69191    0  163    3.06609    2.69191  12.2%     -    0s
H  108    70                       3.0411978    2.72916  10.3%  80.0    1s
*  222   127              26       3.0258462    2.73597  9.58%  73.7    1s
*  434   229              39       3.0050550    2.77576  7.63%  58.1    2s
H  439   152                       2.9263627    2.77576  5.15%  57.5    2s
H  504   150                       2.9220440    2.78319  4.75%  57.9    2s
   561   177    2.89805   24   73    2.92204    2.78594  4.66%  67.3    5s
H  591   168                       2.8996154    2.78594  3.92%  67.7    5s
H 1001     5                       2.8996154    2.89066  0.31%  63.0    6s
H 1001     2                       2.8996154    2.89066  0.31%  63.0    6s

Cutting planes:
  Cover: 15
  Implied bound: 8
  Clique: 10
  MIR: 62
  StrongCG: 4
  Flow cover: 102
  RLT: 14
  Relax-and-lift: 116

Explored 1004 nodes (68454 simplex iterations) in 6.98 seconds
Thread count was 1 (of 4 available processors)

Solution count 10: 2.89962 2.89962 2.92204 ... 3.30726

Optimal solution found (tolerance 1.00e-04)
Best objective 2.899615418171e+00, best bound 2.899547553357e+00, gap 0.0023%
